Mack/Bortfeldt(2008)
Bin-Packing-Problem
BP-RG/SBSBPP/SSSCSP
Testcase-ID	11
Problem-ID	55
no_item_types	15
no_items	2043
CONTAINER_DATA (l,w,h)	404	50	1
ITEMS_DATA:
Type	x	y	z	no_items
1	50	36	1	137
2	41	40	1	133
3	43	38	1	139
4	54	29	1	125
5	47	27	1	149
6	44	27	1	142
7	54	20	1	126
8	35	28	1	142
9	41	18	1	139
10	36	18	1	127
11	46	14	1	127
12	39	13	1	131
13	45	11	1	143
14	27	15	1	142
15	17	15	1	141
